# Solution for model BargeScheduling
# Objective value = 6.4950002099283329e+03
f_ck[0,0] 0
f_ck[0,1] 0
f_ck[0,2] 0
f_ck[0,3] 1
f_ck[0,4] 0
f_ck[0,5] 0
f_ck[0,6] 0
f_ck[0,7] 0
f_ck[1,0] 0
f_ck[1,1] 0
f_ck[1,2] 0
f_ck[1,3] 1
f_ck[1,4] 0
f_ck[1,5] 0
f_ck[1,6] 0
f_ck[1,7] 0
f_ck[2,0] 0
f_ck[2,1] 1
f_ck[2,2] 0
f_ck[2,3] 0
f_ck[2,4] 0
f_ck[2,5] 0
f_ck[2,6] 0
f_ck[2,7] 0
f_ck[3,0] 0
f_ck[3,1] 0
f_ck[3,2] 0
f_ck[3,3] 1
f_ck[3,4] 0
f_ck[3,5] 0
f_ck[3,6] 0
f_ck[3,7] 0
f_ck[4,0] 1
f_ck[4,1] 0
f_ck[4,2] 0
f_ck[4,3] 0
f_ck[4,4] 0
f_ck[4,5] 0
f_ck[4,6] 0
f_ck[4,7] 0
f_ck[5,0] 0
f_ck[5,1] 0
f_ck[5,2] 0
f_ck[5,3] 1
f_ck[5,4] 0
f_ck[5,5] 0
f_ck[5,6] 0
f_ck[5,7] 0
f_ck[6,0] 0
f_ck[6,1] 1
f_ck[6,2] 0
f_ck[6,3] 0
f_ck[6,4] 0
f_ck[6,5] 0
f_ck[6,6] 0
f_ck[6,7] 0
f_ck[7,0] 0
f_ck[7,1] 1
f_ck[7,2] 0
f_ck[7,3] 0
f_ck[7,4] 0
f_ck[7,5] 0
f_ck[7,6] 0
f_ck[7,7] 0
f_ck[8,0] 1
f_ck[8,1] 0
f_ck[8,2] 0
f_ck[8,3] 0
f_ck[8,4] 0
f_ck[8,5] 0
f_ck[8,6] 0
f_ck[8,7] 0
f_ck[9,0] 0
f_ck[9,1] 1
f_ck[9,2] 0
f_ck[9,3] 0
f_ck[9,4] 0
f_ck[9,5] 0
f_ck[9,6] 0
f_ck[9,7] 0
f_ck[10,0] 0
f_ck[10,1] 1
f_ck[10,2] 0
f_ck[10,3] 0
f_ck[10,4] 0
f_ck[10,5] 0
f_ck[10,6] 0
f_ck[10,7] 0
f_ck[11,0] 1
f_ck[11,1] 0
f_ck[11,2] 0
f_ck[11,3] 0
f_ck[11,4] 0
f_ck[11,5] 0
f_ck[11,6] 0
f_ck[11,7] 0
f_ck[12,0] 0
f_ck[12,1] 0
f_ck[12,2] 0
f_ck[12,3] 1
f_ck[12,4] 0
f_ck[12,5] 0
f_ck[12,6] 0
f_ck[12,7] 0
f_ck[13,0] 0
f_ck[13,1] 0
f_ck[13,2] 0
f_ck[13,3] 1
f_ck[13,4] 0
f_ck[13,5] 0
f_ck[13,6] 0
f_ck[13,7] 0
f_ck[14,0] 0
f_ck[14,1] 0
f_ck[14,2] 0
f_ck[14,3] 1
f_ck[14,4] 0
f_ck[14,5] 0
f_ck[14,6] 0
f_ck[14,7] 0
f_ck[15,0] 0
f_ck[15,1] 0
f_ck[15,2] 0
f_ck[15,3] 1
f_ck[15,4] 0
f_ck[15,5] 0
f_ck[15,6] 0
f_ck[15,7] 0
f_ck[16,0] 1
f_ck[16,1] 0
f_ck[16,2] 0
f_ck[16,3] 0
f_ck[16,4] 0
f_ck[16,5] 0
f_ck[16,6] 0
f_ck[16,7] 0
f_ck[17,0] 0
f_ck[17,1] 0
f_ck[17,2] 0
f_ck[17,3] 1
f_ck[17,4] 0
f_ck[17,5] 0
f_ck[17,6] 0
f_ck[17,7] 0
f_ck[18,0] 0
f_ck[18,1] 0
f_ck[18,2] 0
f_ck[18,3] 1
f_ck[18,4] 0
f_ck[18,5] 0
f_ck[18,6] 0
f_ck[18,7] 0
f_ck[19,0] 0
f_ck[19,1] 0
f_ck[19,2] 0
f_ck[19,3] 1
f_ck[19,4] 0
f_ck[19,5] 0
f_ck[19,6] 0
f_ck[19,7] 0
f_ck[20,0] 0
f_ck[20,1] 0
f_ck[20,2] 0
f_ck[20,3] 1
f_ck[20,4] 0
f_ck[20,5] 0
f_ck[20,6] 0
f_ck[20,7] 0
f_ck[21,0] 1
f_ck[21,1] 0
f_ck[21,2] 0
f_ck[21,3] 0
f_ck[21,4] 0
f_ck[21,5] 0
f_ck[21,6] 0
f_ck[21,7] 0
f_ck[22,0] 0.999996499999422
f_ck[22,1] 0
f_ck[22,2] 0
f_ck[22,3] 3.4987505780615216e-06
f_ck[22,4] 0
f_ck[22,5] 0
f_ck[22,6] 0
f_ck[22,7] 0
f_ck[23,0] 0
f_ck[23,1] 0
f_ck[23,2] 0
f_ck[23,3] 1
f_ck[23,4] 0
f_ck[23,5] 0
f_ck[23,6] 0
f_ck[23,7] 0
f_ck[24,0] 1
f_ck[24,1] 0
f_ck[24,2] 0
f_ck[24,3] 0
f_ck[24,4] 0
f_ck[24,5] 0
f_ck[24,6] 0
f_ck[24,7] 0
f_ck[25,0] 1
f_ck[25,1] 0
f_ck[25,2] 0
f_ck[25,3] 0
f_ck[25,4] 0
f_ck[25,5] 0
f_ck[25,6] 0
f_ck[25,7] 0
f_ck[26,0] 1
f_ck[26,1] 0
f_ck[26,2] 0
f_ck[26,3] 0
f_ck[26,4] 0
f_ck[26,5] 0
f_ck[26,6] 0
f_ck[26,7] 0
f_ck[27,0] 1
f_ck[27,1] 0
f_ck[27,2] 0
f_ck[27,3] 0
f_ck[27,4] 0
f_ck[27,5] 0
f_ck[27,6] 0
f_ck[27,7] 0
f_ck[28,0] 1
f_ck[28,1] 0
f_ck[28,2] 0
f_ck[28,3] 0
f_ck[28,4] 0
f_ck[28,5] 0
f_ck[28,6] 0
f_ck[28,7] 0
f_ck[29,0] 1
f_ck[29,1] 0
f_ck[29,2] 0
f_ck[29,3] 0
f_ck[29,4] 0
f_ck[29,5] 0
f_ck[29,6] 0
f_ck[29,7] 0
f_ck[30,0] 0
f_ck[30,1] 1
f_ck[30,2] 0
f_ck[30,3] 0
f_ck[30,4] 0
f_ck[30,5] 0
f_ck[30,6] 0
f_ck[30,7] 0
f_ck[31,0] 0
f_ck[31,1] 1
f_ck[31,2] 0
f_ck[31,3] 0
f_ck[31,4] 0
f_ck[31,5] 0
f_ck[31,6] 0
f_ck[31,7] 0
f_ck[32,0] 0
f_ck[32,1] 0
f_ck[32,2] 0
f_ck[32,3] 1
f_ck[32,4] 0
f_ck[32,5] 0
f_ck[32,6] 0
f_ck[32,7] 0
f_ck[33,0] 0
f_ck[33,1] 1
f_ck[33,2] 0
f_ck[33,3] 0
f_ck[33,4] 0
f_ck[33,5] 0
f_ck[33,6] 0
f_ck[33,7] 0
f_ck[34,0] 0
f_ck[34,1] 1
f_ck[34,2] 0
f_ck[34,3] 0
f_ck[34,4] 0
f_ck[34,5] 0
f_ck[34,6] 0
f_ck[34,7] 0
f_ck[35,0] 0
f_ck[35,1] 0
f_ck[35,2] 0
f_ck[35,3] 1
f_ck[35,4] 0
f_ck[35,5] 0
f_ck[35,6] 0
f_ck[35,7] 0
f_ck[36,0] 0
f_ck[36,1] 0
f_ck[36,2] 0
f_ck[36,3] 1
f_ck[36,4] 0
f_ck[36,5] 0
f_ck[36,6] 0
f_ck[36,7] 0
f_ck[37,0] 0
f_ck[37,1] 0
f_ck[37,2] 0
f_ck[37,3] 1
f_ck[37,4] 0
f_ck[37,5] 0
f_ck[37,6] 0
f_ck[37,7] 0
f_ck[38,0] 1
f_ck[38,1] 0
f_ck[38,2] 0
f_ck[38,3] 0
f_ck[38,4] 0
f_ck[38,5] 0
f_ck[38,6] 0
f_ck[38,7] 0
f_ck[39,0] 1
f_ck[39,1] 0
f_ck[39,2] 0
f_ck[39,3] 0
f_ck[39,4] 0
f_ck[39,5] 0
f_ck[39,6] 0
f_ck[39,7] 0
f_ck[40,0] 1
f_ck[40,1] 0
f_ck[40,2] 0
f_ck[40,3] 0
f_ck[40,4] 0
f_ck[40,5] 0
f_ck[40,6] 0
f_ck[40,7] 0
f_ck[41,0] 1
f_ck[41,1] 0
f_ck[41,2] 0
f_ck[41,3] 0
f_ck[41,4] 0
f_ck[41,5] 0
f_ck[41,6] 0
f_ck[41,7] 0
f_ck[42,0] 0
f_ck[42,1] 0
f_ck[42,2] 0
f_ck[42,3] 1
f_ck[42,4] 0
f_ck[42,5] 0
f_ck[42,6] 0
f_ck[42,7] 0
f_ck[43,0] 1
f_ck[43,1] 0
f_ck[43,2] 0
f_ck[43,3] 0
f_ck[43,4] 0
f_ck[43,5] 0
f_ck[43,6] 0
f_ck[43,7] 0
f_ck[44,0] 1
f_ck[44,1] 0
f_ck[44,2] 0
f_ck[44,3] 0
f_ck[44,4] 0
f_ck[44,5] 0
f_ck[44,6] 0
f_ck[44,7] 0
f_ck[45,0] 1
f_ck[45,1] 0
f_ck[45,2] 0
f_ck[45,3] 0
f_ck[45,4] 0
f_ck[45,5] 0
f_ck[45,6] 0
f_ck[45,7] 0
f_ck[46,0] 0
f_ck[46,1] 1
f_ck[46,2] 0
f_ck[46,3] 0
f_ck[46,4] 0
f_ck[46,5] 0
f_ck[46,6] 0
f_ck[46,7] 0
f_ck[47,0] 1
f_ck[47,1] 0
f_ck[47,2] 0
f_ck[47,3] 0
f_ck[47,4] 0
f_ck[47,5] 0
f_ck[47,6] 0
f_ck[47,7] 0
f_ck[48,0] 1
f_ck[48,1] 0
f_ck[48,2] 0
f_ck[48,3] 0
f_ck[48,4] 0
f_ck[48,5] 0
f_ck[48,6] 0
f_ck[48,7] 0
f_ck[49,0] 0
f_ck[49,1] 1
f_ck[49,2] 0
f_ck[49,3] 0
f_ck[49,4] 0
f_ck[49,5] 0
f_ck[49,6] 0
f_ck[49,7] 0
f_ck[50,0] 0
f_ck[50,1] 0
f_ck[50,2] 0
f_ck[50,3] 1
f_ck[50,4] 0
f_ck[50,5] 0
f_ck[50,6] 0
f_ck[50,7] 0
f_ck[51,0] 1
f_ck[51,1] 0
f_ck[51,2] 0
f_ck[51,3] 0
f_ck[51,4] 0
f_ck[51,5] 0
f_ck[51,6] 0
f_ck[51,7] 0
f_ck[52,0] 0
f_ck[52,1] 0
f_ck[52,2] 0
f_ck[52,3] 1
f_ck[52,4] 0
f_ck[52,5] 0
f_ck[52,6] 0
f_ck[52,7] 0
f_ck[53,0] 1
f_ck[53,1] 0
f_ck[53,2] 0
f_ck[53,3] 0
f_ck[53,4] 0
f_ck[53,5] 0
f_ck[53,6] 0
f_ck[53,7] 0
f_ck[54,0] 0
f_ck[54,1] 0
f_ck[54,2] 0
f_ck[54,3] 1
f_ck[54,4] 0
f_ck[54,5] 0
f_ck[54,6] 0
f_ck[54,7] 0
f_ck[55,0] 0
f_ck[55,1] 1
f_ck[55,2] 0
f_ck[55,3] 0
f_ck[55,4] 0
f_ck[55,5] 0
f_ck[55,6] 0
f_ck[55,7] 0
f_ck[56,0] 0
f_ck[56,1] 1
f_ck[56,2] 0
f_ck[56,3] 0
f_ck[56,4] 0
f_ck[56,5] 0
f_ck[56,6] 0
f_ck[56,7] 0
f_ck[57,0] 0
f_ck[57,1] 1
f_ck[57,2] 0
f_ck[57,3] 0
f_ck[57,4] 0
f_ck[57,5] 0
f_ck[57,6] 0
f_ck[57,7] 0
f_ck[58,0] 3.4984155855902332e-06
f_ck[58,1] 9.9999650176298582e-01
f_ck[58,2] 0
f_ck[58,3] 0
f_ck[58,4] 0
f_ck[58,5] 0
f_ck[58,6] 0
f_ck[58,7] 0
f_ck[59,0] 1
f_ck[59,1] 0
f_ck[59,2] 0
f_ck[59,3] 0
f_ck[59,4] 0
f_ck[59,5] 0
f_ck[59,6] 0
f_ck[59,7] 0
f_ck[60,0] 0
f_ck[60,1] 0
f_ck[60,2] 0
f_ck[60,3] 1
f_ck[60,4] 0
f_ck[60,5] 0
f_ck[60,6] 0
f_ck[60,7] 0
f_ck[61,0] 0
f_ck[61,1] 1
f_ck[61,2] 0
f_ck[61,3] 0
f_ck[61,4] 0
f_ck[61,5] 0
f_ck[61,6] 0
f_ck[61,7] 0
f_ck[62,0] 0
f_ck[62,1] 0
f_ck[62,2] 0
f_ck[62,3] 1
f_ck[62,4] 0
f_ck[62,5] 0
f_ck[62,6] 0
f_ck[62,7] 0
f_ck[63,0] 0
f_ck[63,1] 1
f_ck[63,2] 0
f_ck[63,3] 0
f_ck[63,4] 0
f_ck[63,5] 0
f_ck[63,6] 0
f_ck[63,7] 0
f_ck[64,0] 0
f_ck[64,1] 1
f_ck[64,2] 0
f_ck[64,3] 0
f_ck[64,4] 0
f_ck[64,5] 0
f_ck[64,6] 0
f_ck[64,7] 0
f_ck[65,0] 1
f_ck[65,1] 0
f_ck[65,2] 0
f_ck[65,3] 0
f_ck[65,4] 0
f_ck[65,5] 0
f_ck[65,6] 0
f_ck[65,7] 0
f_ck[66,0] 1
f_ck[66,1] 0
f_ck[66,2] 0
f_ck[66,3] 0
f_ck[66,4] 0
f_ck[66,5] 0
f_ck[66,6] 0
f_ck[66,7] 0
f_ck[67,0] 0
f_ck[67,1] 0
f_ck[67,2] 0
f_ck[67,3] 1
f_ck[67,4] 0
f_ck[67,5] 0
f_ck[67,6] 0
f_ck[67,7] 0
f_ck[68,0] 1
f_ck[68,1] 0
f_ck[68,2] 0
f_ck[68,3] 0
f_ck[68,4] 0
f_ck[68,5] 0
f_ck[68,6] 0
f_ck[68,7] 0
f_ck[69,0] 1
f_ck[69,1] 0
f_ck[69,2] 0
f_ck[69,3] 0
f_ck[69,4] 0
f_ck[69,5] 0
f_ck[69,6] 0
f_ck[69,7] 0
f_ck[70,0] 1
f_ck[70,1] 0
f_ck[70,2] 0
f_ck[70,3] 0
f_ck[70,4] 0
f_ck[70,5] 0
f_ck[70,6] 0
f_ck[70,7] 0
x_ijk[0,1,0] 0
x_ijk[0,1,1] 0
x_ijk[0,1,2] 0
x_ijk[0,1,3] 0
x_ijk[0,1,4] 0
x_ijk[0,1,5] 0
x_ijk[0,1,6] 0
x_ijk[0,2,0] 0
x_ijk[0,2,1] 0
x_ijk[0,2,2] 0
x_ijk[0,2,3] 1
x_ijk[0,2,4] 0
x_ijk[0,2,5] 0
x_ijk[0,2,6] 0
x_ijk[0,3,0] 0
x_ijk[0,3,1] 1
x_ijk[0,3,2] 0
x_ijk[0,3,3] 0
x_ijk[0,3,4] 0
x_ijk[0,3,5] 0
x_ijk[0,3,6] 0
x_ijk[0,4,0] 0
x_ijk[0,4,1] 0
x_ijk[0,4,2] 0
x_ijk[0,4,3] 0
x_ijk[0,4,4] 0
x_ijk[0,4,5] 0
x_ijk[0,4,6] 0
x_ijk[0,5,0] 1
x_ijk[0,5,1] 0
x_ijk[0,5,2] 0
x_ijk[0,5,3] 0
x_ijk[0,5,4] 0
x_ijk[0,5,5] 0
x_ijk[0,5,6] 0
x_ijk[1,0,0] 0
x_ijk[1,0,1] 0
x_ijk[1,0,2] 0
x_ijk[1,0,3] 0
x_ijk[1,0,4] 0
x_ijk[1,0,5] 0
x_ijk[1,0,6] 0
x_ijk[1,2,0] 1
x_ijk[1,2,1] 0
x_ijk[1,2,2] 0
x_ijk[1,2,3] 0
x_ijk[1,2,4] 0
x_ijk[1,2,5] 0
x_ijk[1,2,6] 0
x_ijk[1,3,0] 0
x_ijk[1,3,1] 0
x_ijk[1,3,2] 0
x_ijk[1,3,3] 0
x_ijk[1,3,4] 0
x_ijk[1,3,5] 0
x_ijk[1,3,6] 0
x_ijk[1,4,0] 0
x_ijk[1,4,1] 0
x_ijk[1,4,2] 0
x_ijk[1,4,3] 0
x_ijk[1,4,4] 0
x_ijk[1,4,5] 0
x_ijk[1,4,6] 0
x_ijk[1,5,0] 0
x_ijk[1,5,1] 0
x_ijk[1,5,2] 0
x_ijk[1,5,3] 0
x_ijk[1,5,4] 0
x_ijk[1,5,5] 0
x_ijk[1,5,6] 0
x_ijk[2,0,0] 1
x_ijk[2,0,1] 0
x_ijk[2,0,2] 0
x_ijk[2,0,3] 0
x_ijk[2,0,4] 0
x_ijk[2,0,5] 0
x_ijk[2,0,6] 0
x_ijk[2,1,0] 0
x_ijk[2,1,1] 0
x_ijk[2,1,2] 0
x_ijk[2,1,3] 0
x_ijk[2,1,4] 0
x_ijk[2,1,5] 0
x_ijk[2,1,6] 0
x_ijk[2,3,0] 0
x_ijk[2,3,1] 0
x_ijk[2,3,2] 0
x_ijk[2,3,3] 1
x_ijk[2,3,4] 0
x_ijk[2,3,5] 0
x_ijk[2,3,6] 0
x_ijk[2,4,0] 0
x_ijk[2,4,1] 0
x_ijk[2,4,2] 0
x_ijk[2,4,3] 0
x_ijk[2,4,4] 0
x_ijk[2,4,5] 0
x_ijk[2,4,6] 0
x_ijk[2,5,0] 0
x_ijk[2,5,1] 6.5816666663871127e-06
x_ijk[2,5,2] 0
x_ijk[2,5,3] 0
x_ijk[2,5,4] 0
x_ijk[2,5,5] 0
x_ijk[2,5,6] 0
x_ijk[3,0,0] 0
x_ijk[3,0,1] 0
x_ijk[3,0,2] 0
x_ijk[3,0,3] 1
x_ijk[3,0,4] 0
x_ijk[3,0,5] 0
x_ijk[3,0,6] 0
x_ijk[3,1,0] 0
x_ijk[3,1,1] 0
x_ijk[3,1,2] 0
x_ijk[3,1,3] 0
x_ijk[3,1,4] 0
x_ijk[3,1,5] 0
x_ijk[3,1,6] 0
x_ijk[3,2,0] 0
x_ijk[3,2,1] 6.5816666663871127e-06
x_ijk[3,2,2] 0
x_ijk[3,2,3] 0
x_ijk[3,2,4] 0
x_ijk[3,2,5] 0
x_ijk[3,2,6] 0
x_ijk[3,4,0] 0
x_ijk[3,4,1] 9.9999341666666719e-01
x_ijk[3,4,2] 0
x_ijk[3,4,3] 0
x_ijk[3,4,4] 0
x_ijk[3,4,5] 0
x_ijk[3,4,6] 0
x_ijk[3,5,0] 0
x_ijk[3,5,1] 0
x_ijk[3,5,2] 0
x_ijk[3,5,3] 0
x_ijk[3,5,4] 0
x_ijk[3,5,5] 0
x_ijk[3,5,6] 0
x_ijk[4,0,0] 0
x_ijk[4,0,1] 0
x_ijk[4,0,2] 0
x_ijk[4,0,3] 0
x_ijk[4,0,4] 0
x_ijk[4,0,5] 0
x_ijk[4,0,6] 0
x_ijk[4,1,0] 0
x_ijk[4,1,1] 0
x_ijk[4,1,2] 0
x_ijk[4,1,3] 0
x_ijk[4,1,4] 0
x_ijk[4,1,5] 0
x_ijk[4,1,6] 0
x_ijk[4,2,0] 0
x_ijk[4,2,1] 0
x_ijk[4,2,2] 0
x_ijk[4,2,3] 0
x_ijk[4,2,4] 0
x_ijk[4,2,5] 0
x_ijk[4,2,6] 0
x_ijk[4,3,0] 0
x_ijk[4,3,1] 0
x_ijk[4,3,2] 0
x_ijk[4,3,3] 0
x_ijk[4,3,4] 0
x_ijk[4,3,5] 0
x_ijk[4,3,6] 0
x_ijk[4,5,0] 0
x_ijk[4,5,1] 9.9999341666666774e-01
x_ijk[4,5,2] 0
x_ijk[4,5,3] 0
x_ijk[4,5,4] 0
x_ijk[4,5,5] 0
x_ijk[4,5,6] 0
x_ijk[5,0,0] 0
x_ijk[5,0,1] 1
x_ijk[5,0,2] 0
x_ijk[5,0,3] 0
x_ijk[5,0,4] 0
x_ijk[5,0,5] 0
x_ijk[5,0,6] 0
x_ijk[5,1,0] 1
x_ijk[5,1,1] 0
x_ijk[5,1,2] 0
x_ijk[5,1,3] 0
x_ijk[5,1,4] 0
x_ijk[5,1,5] 0
x_ijk[5,1,6] 0
x_ijk[5,2,0] 0
x_ijk[5,2,1] 0
x_ijk[5,2,2] 0
x_ijk[5,2,3] 0
x_ijk[5,2,4] 0
x_ijk[5,2,5] 0
x_ijk[5,2,6] 0
x_ijk[5,3,0] 0
x_ijk[5,3,1] 0
x_ijk[5,3,2] 0
x_ijk[5,3,3] 0
x_ijk[5,3,4] 0
x_ijk[5,3,5] 0
x_ijk[5,3,6] 0
x_ijk[5,4,0] 0
x_ijk[5,4,1] 0
x_ijk[5,4,2] 0
x_ijk[5,4,3] 0
x_ijk[5,4,4] 0
x_ijk[5,4,5] 0
x_ijk[5,4,6] 0
p_jk[0,0] 0
p_jk[0,1] 0
p_jk[0,2] 0
p_jk[0,3] 0
p_jk[0,4] 0
p_jk[0,5] 0
p_jk[0,6] 0
p_jk[1,0] 9
p_jk[1,1] 0
p_jk[1,2] 0
p_jk[1,3] 0
p_jk[1,4] 0
p_jk[1,5] 0
p_jk[1,6] 0
p_jk[2,0] 3
p_jk[2,1] 0
p_jk[2,2] 0
p_jk[2,3] 6
p_jk[2,4] 0
p_jk[2,5] 0
p_jk[2,6] 0
p_jk[3,0] 0
p_jk[3,1] 1
p_jk[3,2] 0
p_jk[3,3] 8
p_jk[3,4] 0
p_jk[3,5] 0
p_jk[3,6] 0
p_jk[4,0] 0
p_jk[4,1] 7
p_jk[4,2] 0
p_jk[4,3] 0
p_jk[4,4] 0
p_jk[4,5] 0
p_jk[4,6] 0
p_jk[5,0] 5.0000034981271240e+00
p_jk[5,1] 2.9999965021525949e+00
p_jk[5,2] 0
p_jk[5,3] 0
p_jk[5,4] 0
p_jk[5,5] 0
p_jk[5,6] 0
d_jk[0,0] 0
d_jk[0,1] 0
d_jk[0,2] 0
d_jk[0,3] 0
d_jk[0,4] 0
d_jk[0,5] 0
d_jk[0,6] 0
d_jk[1,0] 8
d_jk[1,1] 0
d_jk[1,2] 0
d_jk[1,3] 0
d_jk[1,4] 0
d_jk[1,5] 0
d_jk[1,6] 0
d_jk[2,0] 5.9999965008327552e+00
d_jk[2,1] 0
d_jk[2,2] 0
d_jk[2,3] 7.0000034983322541e+00
d_jk[2,4] 0
d_jk[2,5] 0
d_jk[2,6] 0
d_jk[3,0] 0
d_jk[3,1] 5
d_jk[3,2] 0
d_jk[3,3] 8
d_jk[3,4] 0
d_jk[3,5] 0
d_jk[3,6] 0
d_jk[4,0] 0
d_jk[4,1] 3
d_jk[4,2] 0
d_jk[4,3] 0
d_jk[4,4] 0
d_jk[4,5] 0
d_jk[4,6] 0
d_jk[5,0] 4
d_jk[5,1] 3
d_jk[5,2] 0
d_jk[5,3] 0
d_jk[5,4] 0
d_jk[5,5] 0
d_jk[5,6] 0
y_ijk[0,0,0] 0
y_ijk[0,0,1] 0
y_ijk[0,0,2] 0
y_ijk[0,0,3] 0
y_ijk[0,0,4] 0
y_ijk[0,0,5] 0
y_ijk[0,0,6] 0
y_ijk[0,1,0] 0
y_ijk[0,1,1] 0
y_ijk[0,1,2] 0
y_ijk[0,1,3] 0
y_ijk[0,1,4] 0
y_ijk[0,1,5] 0
y_ijk[0,1,6] 0
y_ijk[0,2,0] 0
y_ijk[0,2,1] 0
y_ijk[0,2,2] 0
y_ijk[0,2,3] 0
y_ijk[0,2,4] 0
y_ijk[0,2,5] 0
y_ijk[0,2,6] 0
y_ijk[0,3,0] 0
y_ijk[0,3,1] 0
y_ijk[0,3,2] 0
y_ijk[0,3,3] 0
y_ijk[0,3,4] 0
y_ijk[0,3,5] 0
y_ijk[0,3,6] 0
y_ijk[0,4,0] 0
y_ijk[0,4,1] 0
y_ijk[0,4,2] 0
y_ijk[0,4,3] 0
y_ijk[0,4,4] 0
y_ijk[0,4,5] 0
y_ijk[0,4,6] 0
y_ijk[0,5,0] 0
y_ijk[0,5,1] 0
y_ijk[0,5,2] 0
y_ijk[0,5,3] 0
y_ijk[0,5,4] 0
y_ijk[0,5,5] 0
y_ijk[0,5,6] 0
y_ijk[1,0,0] 0
y_ijk[1,0,1] 0
y_ijk[1,0,2] 0
y_ijk[1,0,3] 0
y_ijk[1,0,4] 0
y_ijk[1,0,5] 0
y_ijk[1,0,6] 0
y_ijk[1,1,0] 0
y_ijk[1,1,1] 0
y_ijk[1,1,2] 0
y_ijk[1,1,3] 0
y_ijk[1,1,4] 0
y_ijk[1,1,5] 0
y_ijk[1,1,6] 0
y_ijk[1,2,0] 1.4000003498127128e+01
y_ijk[1,2,1] 0
y_ijk[1,2,2] 0
y_ijk[1,2,3] 0
y_ijk[1,2,4] 0
y_ijk[1,2,5] 0
y_ijk[1,2,6] 0
y_ijk[1,3,0] 0
y_ijk[1,3,1] 0
y_ijk[1,3,2] 0
y_ijk[1,3,3] 0
y_ijk[1,3,4] 0
y_ijk[1,3,5] 0
y_ijk[1,3,6] 0
y_ijk[1,4,0] 0
y_ijk[1,4,1] 0
y_ijk[1,4,2] 0
y_ijk[1,4,3] 0
y_ijk[1,4,4] 0
y_ijk[1,4,5] 0
y_ijk[1,4,6] 0
y_ijk[1,5,0] 0
y_ijk[1,5,1] 0
y_ijk[1,5,2] 0
y_ijk[1,5,3] 0
y_ijk[1,5,4] 0
y_ijk[1,5,5] 0
y_ijk[1,5,6] 0
y_ijk[2,0,0] 1.7000003497218035e+01
y_ijk[2,0,1] 0
y_ijk[2,0,2] 0
y_ijk[2,0,3] 0
y_ijk[2,0,4] 0
y_ijk[2,0,5] 0
y_ijk[2,0,6] 0
y_ijk[2,1,0] 0
y_ijk[2,1,1] 0
y_ijk[2,1,2] 0
y_ijk[2,1,3] 0
y_ijk[2,1,4] 0
y_ijk[2,1,5] 0
y_ijk[2,1,6] 0
y_ijk[2,2,0] 0
y_ijk[2,2,1] 0
y_ijk[2,2,2] 0
y_ijk[2,2,3] 0
y_ijk[2,2,4] 0
y_ijk[2,2,5] 0
y_ijk[2,2,6] 0
y_ijk[2,3,0] 0
y_ijk[2,3,1] 0
y_ijk[2,3,2] 0
y_ijk[2,3,3] 6
y_ijk[2,3,4] 0
y_ijk[2,3,5] 0
y_ijk[2,3,6] 0
y_ijk[2,4,0] 0
y_ijk[2,4,1] 0
y_ijk[2,4,2] 0
y_ijk[2,4,3] 0
y_ijk[2,4,4] 0
y_ijk[2,4,5] 0
y_ijk[2,4,6] 0
y_ijk[2,5,0] 0
y_ijk[2,5,1] 0
y_ijk[2,5,2] 0
y_ijk[2,5,3] 0
y_ijk[2,5,4] 0
y_ijk[2,5,5] 0
y_ijk[2,5,6] 0
y_ijk[3,0,0] 0
y_ijk[3,0,1] 0
y_ijk[3,0,2] 0
y_ijk[3,0,3] 14
y_ijk[3,0,4] 0
y_ijk[3,0,5] 0
y_ijk[3,0,6] 0
y_ijk[3,1,0] 0
y_ijk[3,1,1] 0
y_ijk[3,1,2] 0
y_ijk[3,1,3] 0
y_ijk[3,1,4] 0
y_ijk[3,1,5] 0
y_ijk[3,1,6] 0
y_ijk[3,2,0] 0
y_ijk[3,2,1] 0
y_ijk[3,2,2] 0
y_ijk[3,2,3] 0
y_ijk[3,2,4] 0
y_ijk[3,2,5] 0
y_ijk[3,2,6] 0
y_ijk[3,3,0] 0
y_ijk[3,3,1] 0
y_ijk[3,3,2] 0
y_ijk[3,3,3] 0
y_ijk[3,3,4] 0
y_ijk[3,3,5] 0
y_ijk[3,3,6] 0
y_ijk[3,4,0] 0
y_ijk[3,4,1] 1
y_ijk[3,4,2] 0
y_ijk[3,4,3] 0
y_ijk[3,4,4] 0
y_ijk[3,4,5] 0
y_ijk[3,4,6] 0
y_ijk[3,5,0] 0
y_ijk[3,5,1] 0
y_ijk[3,5,2] 0
y_ijk[3,5,3] 0
y_ijk[3,5,4] 0
y_ijk[3,5,5] 0
y_ijk[3,5,6] 0
y_ijk[4,0,0] 0
y_ijk[4,0,1] 0
y_ijk[4,0,2] 0
y_ijk[4,0,3] 0
y_ijk[4,0,4] 0
y_ijk[4,0,5] 0
y_ijk[4,0,6] 0
y_ijk[4,1,0] 0
y_ijk[4,1,1] 0
y_ijk[4,1,2] 0
y_ijk[4,1,3] 0
y_ijk[4,1,4] 0
y_ijk[4,1,5] 0
y_ijk[4,1,6] 0
y_ijk[4,2,0] 0
y_ijk[4,2,1] 0
y_ijk[4,2,2] 0
y_ijk[4,2,3] 0
y_ijk[4,2,4] 0
y_ijk[4,2,5] 0
y_ijk[4,2,6] 0
y_ijk[4,3,0] 0
y_ijk[4,3,1] 0
y_ijk[4,3,2] 0
y_ijk[4,3,3] 0
y_ijk[4,3,4] 0
y_ijk[4,3,5] 0
y_ijk[4,3,6] 0
y_ijk[4,4,0] 0
y_ijk[4,4,1] 0
y_ijk[4,4,2] 0
y_ijk[4,4,3] 0
y_ijk[4,4,4] 0
y_ijk[4,4,5] 0
y_ijk[4,4,6] 0
y_ijk[4,5,0] 0
y_ijk[4,5,1] 8
y_ijk[4,5,2] 0
y_ijk[4,5,3] 0
y_ijk[4,5,4] 0
y_ijk[4,5,5] 0
y_ijk[4,5,6] 0
y_ijk[5,0,0] 0
y_ijk[5,0,1] 1.0999996503061686e+01
y_ijk[5,0,2] 0
y_ijk[5,0,3] 0
y_ijk[5,0,4] 0
y_ijk[5,0,5] 0
y_ijk[5,0,6] 0
y_ijk[5,1,0] 5.0000034972180378e+00
y_ijk[5,1,1] 0
y_ijk[5,1,2] 0
y_ijk[5,1,3] 0
y_ijk[5,1,4] 0
y_ijk[5,1,5] 0
y_ijk[5,1,6] 0
y_ijk[5,2,0] 0
y_ijk[5,2,1] 0
y_ijk[5,2,2] 0
y_ijk[5,2,3] 0
y_ijk[5,2,4] 0
y_ijk[5,2,5] 0
y_ijk[5,2,6] 0
y_ijk[5,3,0] 0
y_ijk[5,3,1] 0
y_ijk[5,3,2] 0
y_ijk[5,3,3] 0
y_ijk[5,3,4] 0
y_ijk[5,3,5] 0
y_ijk[5,3,6] 0
y_ijk[5,4,0] 0
y_ijk[5,4,1] 0
y_ijk[5,4,2] 0
y_ijk[5,4,3] 0
y_ijk[5,4,4] 0
y_ijk[5,4,5] 0
y_ijk[5,4,6] 0
y_ijk[5,5,0] 0
y_ijk[5,5,1] 0
y_ijk[5,5,2] 0
y_ijk[5,5,3] 0
y_ijk[5,5,4] 0
y_ijk[5,5,5] 0
y_ijk[5,5,6] 0
z_ijk[0,0,0] 0
z_ijk[0,0,1] 0
z_ijk[0,0,2] 0
z_ijk[0,0,3] 0
z_ijk[0,0,4] 0
z_ijk[0,0,5] 0
z_ijk[0,0,6] 0
z_ijk[0,1,0] 0
z_ijk[0,1,1] 0
z_ijk[0,1,2] 0
z_ijk[0,1,3] 0
z_ijk[0,1,4] 0
z_ijk[0,1,5] 0
z_ijk[0,1,6] 0
z_ijk[0,2,0] 0
z_ijk[0,2,1] 0
z_ijk[0,2,2] 0
z_ijk[0,2,3] 1.5000003497423164e+01
z_ijk[0,2,4] 0
z_ijk[0,2,5] 0
z_ijk[0,2,6] 0
z_ijk[0,3,0] 0
z_ijk[0,3,1] 11
z_ijk[0,3,2] 0
z_ijk[0,3,3] 0
z_ijk[0,3,4] 0
z_ijk[0,3,5] 0
z_ijk[0,3,6] 0
z_ijk[0,4,0] 0
z_ijk[0,4,1] 0
z_ijk[0,4,2] 0
z_ijk[0,4,3] 0
z_ijk[0,4,4] 0
z_ijk[0,4,5] 0
z_ijk[0,4,6] 0
z_ijk[0,5,0] 1.7999996501910175e+01
z_ijk[0,5,1] 0
z_ijk[0,5,2] 0
z_ijk[0,5,3] 0
z_ijk[0,5,4] 0
z_ijk[0,5,5] 0
z_ijk[0,5,6] 0
z_ijk[1,0,0] 0
z_ijk[1,0,1] 0
z_ijk[1,0,2] 0
z_ijk[1,0,3] 0
z_ijk[1,0,4] 0
z_ijk[1,0,5] 0
z_ijk[1,0,6] 0
z_ijk[1,1,0] 0
z_ijk[1,1,1] 0
z_ijk[1,1,2] 0
z_ijk[1,1,3] 0
z_ijk[1,1,4] 0
z_ijk[1,1,5] 0
z_ijk[1,1,6] 0
z_ijk[1,2,0] 5.9999965017418457e+00
z_ijk[1,2,1] 0
z_ijk[1,2,2] 0
z_ijk[1,2,3] 0
z_ijk[1,2,4] 0
z_ijk[1,2,5] 0
z_ijk[1,2,6] 0
z_ijk[1,3,0] 0
z_ijk[1,3,1] 0
z_ijk[1,3,2] 0
z_ijk[1,3,3] 0
z_ijk[1,3,4] 0
z_ijk[1,3,5] 0
z_ijk[1,3,6] 0
z_ijk[1,4,0] 0
z_ijk[1,4,1] 0
z_ijk[1,4,2] 0
z_ijk[1,4,3] 0
z_ijk[1,4,4] 0
z_ijk[1,4,5] 0
z_ijk[1,4,6] 0
z_ijk[1,5,0] 0
z_ijk[1,5,1] 0
z_ijk[1,5,2] 0
z_ijk[1,5,3] 0
z_ijk[1,5,4] 0
z_ijk[1,5,5] 0
z_ijk[1,5,6] 0
z_ijk[2,0,0] 0
z_ijk[2,0,1] 0
z_ijk[2,0,2] 0
z_ijk[2,0,3] 0
z_ijk[2,0,4] 0
z_ijk[2,0,5] 0
z_ijk[2,0,6] 0
z_ijk[2,1,0] 0
z_ijk[2,1,1] 0
z_ijk[2,1,2] 0
z_ijk[2,1,3] 0
z_ijk[2,1,4] 0
z_ijk[2,1,5] 0
z_ijk[2,1,6] 0
z_ijk[2,2,0] 0
z_ijk[2,2,1] 0
z_ijk[2,2,2] 0
z_ijk[2,2,3] 0
z_ijk[2,2,4] 0
z_ijk[2,2,5] 0
z_ijk[2,2,6] 0
z_ijk[2,3,0] 0
z_ijk[2,3,1] 0
z_ijk[2,3,2] 0
z_ijk[2,3,3] 8
z_ijk[2,3,4] 0
z_ijk[2,3,5] 0
z_ijk[2,3,6] 0
z_ijk[2,4,0] 0
z_ijk[2,4,1] 0
z_ijk[2,4,2] 0
z_ijk[2,4,3] 0
z_ijk[2,4,4] 0
z_ijk[2,4,5] 0
z_ijk[2,4,6] 0
z_ijk[2,5,0] 0
z_ijk[2,5,1] 0
z_ijk[2,5,2] 0
z_ijk[2,5,3] 0
z_ijk[2,5,4] 0
z_ijk[2,5,5] 0
z_ijk[2,5,6] 0
z_ijk[3,0,0] 0
z_ijk[3,0,1] 0
z_ijk[3,0,2] 0
z_ijk[3,0,3] 0
z_ijk[3,0,4] 0
z_ijk[3,0,5] 0
z_ijk[3,0,6] 0
z_ijk[3,1,0] 0
z_ijk[3,1,1] 0
z_ijk[3,1,2] 0
z_ijk[3,1,3] 0
z_ijk[3,1,4] 0
z_ijk[3,1,5] 0
z_ijk[3,1,6] 0
z_ijk[3,2,0] 0
z_ijk[3,2,1] 0
z_ijk[3,2,2] 0
z_ijk[3,2,3] 0
z_ijk[3,2,4] 0
z_ijk[3,2,5] 0
z_ijk[3,2,6] 0
z_ijk[3,3,0] 0
z_ijk[3,3,1] 0
z_ijk[3,3,2] 0
z_ijk[3,3,3] 0
z_ijk[3,3,4] 0
z_ijk[3,3,5] 0
z_ijk[3,3,6] 0
z_ijk[3,4,0] 0
z_ijk[3,4,1] 6
z_ijk[3,4,2] 0
z_ijk[3,4,3] 0
z_ijk[3,4,4] 0
z_ijk[3,4,5] 0
z_ijk[3,4,6] 0
z_ijk[3,5,0] 0
z_ijk[3,5,1] 0
z_ijk[3,5,2] 0
z_ijk[3,5,3] 0
z_ijk[3,5,4] 0
z_ijk[3,5,5] 0
z_ijk[3,5,6] 0
z_ijk[4,0,0] 0
z_ijk[4,0,1] 0
z_ijk[4,0,2] 0
z_ijk[4,0,3] 0
z_ijk[4,0,4] 0
z_ijk[4,0,5] 0
z_ijk[4,0,6] 0
z_ijk[4,1,0] 0
z_ijk[4,1,1] 0
z_ijk[4,1,2] 0
z_ijk[4,1,3] 0
z_ijk[4,1,4] 0
z_ijk[4,1,5] 0
z_ijk[4,1,6] 0
z_ijk[4,2,0] 0
z_ijk[4,2,1] 0
z_ijk[4,2,2] 0
z_ijk[4,2,3] 0
z_ijk[4,2,4] 0
z_ijk[4,2,5] 0
z_ijk[4,2,6] 0
z_ijk[4,3,0] 0
z_ijk[4,3,1] 0
z_ijk[4,3,2] 0
z_ijk[4,3,3] 0
z_ijk[4,3,4] 0
z_ijk[4,3,5] 0
z_ijk[4,3,6] 0
z_ijk[4,4,0] 0
z_ijk[4,4,1] 0
z_ijk[4,4,2] 0
z_ijk[4,4,3] 0
z_ijk[4,4,4] 0
z_ijk[4,4,5] 0
z_ijk[4,4,6] 0
z_ijk[4,5,0] 0
z_ijk[4,5,1] 3
z_ijk[4,5,2] 0
z_ijk[4,5,3] 0
z_ijk[4,5,4] 0
z_ijk[4,5,5] 0
z_ijk[4,5,6] 0
z_ijk[5,0,0] 0
z_ijk[5,0,1] 0
z_ijk[5,0,2] 0
z_ijk[5,0,3] 0
z_ijk[5,0,4] 0
z_ijk[5,0,5] 0
z_ijk[5,0,6] 0
z_ijk[5,1,0] 1.3999996502650937e+01
z_ijk[5,1,1] 0
z_ijk[5,1,2] 0
z_ijk[5,1,3] 0
z_ijk[5,1,4] 0
z_ijk[5,1,5] 0
z_ijk[5,1,6] 0
z_ijk[5,2,0] 0
z_ijk[5,2,1] 0
z_ijk[5,2,2] 0
z_ijk[5,2,3] 0
z_ijk[5,2,4] 0
z_ijk[5,2,5] 0
z_ijk[5,2,6] 0
z_ijk[5,3,0] 0
z_ijk[5,3,1] 0
z_ijk[5,3,2] 0
z_ijk[5,3,3] 0
z_ijk[5,3,4] 0
z_ijk[5,3,5] 0
z_ijk[5,3,6] 0
z_ijk[5,4,0] 0
z_ijk[5,4,1] 0
z_ijk[5,4,2] 0
z_ijk[5,4,3] 0
z_ijk[5,4,4] 0
z_ijk[5,4,5] 0
z_ijk[5,4,6] 0
z_ijk[5,5,0] 0
z_ijk[5,5,1] 0
z_ijk[5,5,2] 0
z_ijk[5,5,3] 0
z_ijk[5,5,4] 0
z_ijk[5,5,5] 0
z_ijk[5,5,6] 0
t_jk[0,0] 39
t_jk[0,1] 33
t_jk[0,2] 0
t_jk[0,3] 93
t_jk[0,4] 0
t_jk[0,5] 218
t_jk[0,6] 0
t_jk[1,0] 1.8716666724994056e+02
t_jk[1,1] 0
t_jk[1,2] 0
t_jk[1,3] 0
t_jk[1,4] 3.2766666666666669e+02
t_jk[1,5] 326
t_jk[1,6] 3.2766666666666669e+02
t_jk[2,0] 3.2750000058296337e+02
t_jk[2,1] 1.2442500000047743e-03
t_jk[2,2] 0
t_jk[2,3] 155
t_jk[2,4] 393
t_jk[2,5] 393
t_jk[2,6] 393
t_jk[3,0] 0
t_jk[3,1] 115
t_jk[3,2] 0
t_jk[3,3] 2.7383333391668486e+02
t_jk[3,4] 1000082
t_jk[3,5] 321
t_jk[3,6] 1000082
t_jk[4,0] 0
t_jk[4,1] 1.8841666666666666e+02
t_jk[4,2] 0
t_jk[4,3] 0
t_jk[4,4] 278
t_jk[4,5] 278
t_jk[4,6] 278
t_jk[5,0] 133
t_jk[5,1] 315
t_jk[5,2] 0
t_jk[5,3] 3.7483333333333331e+02
t_jk[5,4] 3.5766666666666669e+02
t_jk[5,5] 0
t_jk[5,6] 3.5766666666666669e+02
